6,6,55
2,0,5,6
0,0,6,9
1,0,16,22
3,0,30,37
5,0,42,45
4,0,49,55
1,1,0,8
2,1,8,13
4,1,13,23
5,1,28,38
0,1,38,48
3,1,48,52
2,2,0,5
3,2,5,9
5,2,9,17
0,2,18,27
1,2,27,28
4,2,42,49
1,3,8,13
0,3,13,18
2,3,22,27
3,3,27,30
4,3,30,38
5,3,45,54
2,4,13,22
1,4,22,25
4,4,25,30
5,4,38,42
0,4,48,51
3,4,52,53
1,5,13,16
3,5,16,19
5,5,19,28
0,5,28,38
4,5,38,42
2,5,42,43
